
Gurobi 6.0.4 (win64) logging started 06/16/15 10:57:00

Read LP format model from file E:\Eigene Dateien\Downloads\Michi shit\VRPTWMS-master\VRPTWMS\instances\mip\fuel\N8-C_DV100-C_SV25_F5_2_No_1.lp
Reading time = 0.00 seconds
(null): 417 rows, 208 columns, 1715 nonzeros
Optimize a model with 417 rows, 208 columns and 1715 nonzeros
Model has 576 quadratic constraints
WARNING: Only barrier available for SOCP models
Coefficient statistics:
  Matrix range    [1e+00, 1e+06]
  Objective range [8e+04, 1e+07]
  Bounds range    [1e+00, 1e+06]
  RHS range       [1e+00, 1e+06]
Presolve removed 36 rows and 19 columns
Presolve time: 0.03s
Presolved: 1391 rows, 719 columns, 6782 nonzeros
Variable types: 480 continuous, 239 integer (196 binary)
Found heuristic solution: objective 8.317200e+07
Optimize a model with 1391 rows, 719 columns and 6782 nonzeros
Coefficient statistics:
  Matrix range    [1e+00, 1e+06]
  Objective range [8e+04, 1e+07]
  Bounds range    [1e+00, 1e+06]
  RHS range       [1e+00, 1e+06]

Concurrent LP optimizer: dual simplex and barrier
Showing barrier log only...

Presolve removed 149 rows and 97 columns
Presolved: 1242 rows, 623 columns, 6118 nonzeros

Root barrier log...

Ordering time: 0.02s

Barrier performed 0 iterations in 0.06 seconds
Barrier solve interrupted - model solved by another algorithm


Solved with dual simplex
Solved in 83 iterations and 0.06 seconds
Optimal objective  2.676754771e+06

Root relaxation: objective 2.676755e+06, 83 iterations, 0.02 seconds

    Nodes    |    Current Node    |     Objective Bounds      |     Work
 Expl Unexpl |  Obj  Depth IntInf | Incumbent    BestBd   Gap | It/Node Time

     0     0 2676754.77    0   24 8.3172e+07 2676754.77  96.8%     -    0s
H    0     0                    7.295880e+07 2676754.77  96.3%     -    0s
H    0     0                    4.208200e+07 2676754.77  93.6%     -    0s
     0     0 1.1296e+07    0   33 4.2082e+07 1.1296e+07  73.2%     -    0s
H    0     0                    3.189030e+07 1.1296e+07  64.6%     -    0s
     0     0 1.1419e+07    0   31 3.1890e+07 1.1419e+07  64.2%     -    0s
     0     0 1.1454e+07    0   20 3.1890e+07 1.1454e+07  64.1%     -    0s
     0     0 1.1466e+07    0   33 3.1890e+07 1.1466e+07  64.0%     -    0s
     0     0 1.1466e+07    0   32 3.1890e+07 1.1466e+07  64.0%     -    0s
     0     0 1.1466e+07    0   32 3.1890e+07 1.1466e+07  64.0%     -    0s
     0     0 1.1466e+07    0   28 3.1890e+07 1.1466e+07  64.0%     -    0s
     0     2 1.1466e+07    0   27 3.1890e+07 1.1466e+07  64.0%     -    0s
H  230   154                    3.169740e+07 1.1658e+07  63.2%  21.1    0s
H 2098   955                    3.166730e+07 1.3745e+07  56.6%  20.5    1s
  4174   923 infeasible   31      3.1667e+07 1.3745e+07  56.6%  34.8    5s
H 4177   873                    3.160280e+07 1.3745e+07  56.5%  34.8    5s
 10476   928 2.8169e+07   32   34 3.1603e+07 1.6296e+07  48.4%  42.0   10s
 16944  1012     cutoff   33      3.1603e+07 2.1983e+07  30.4%  45.3   15s

Cutting planes:
  Gomory: 5
  Cover: 3
  Implied bound: 4
  Clique: 2
  MIR: 2
  Flow cover: 3
  GUB cover: 3
  Zero half: 22

Explored 21517 nodes (1038551 simplex iterations) in 18.67 seconds
Thread count was 4 (of 4 available processors)

Optimal solution found (tolerance 1.00e-04)
Best objective 3.160280000000e+07, best bound 3.160280000000e+07, gap 0.0%
k_c1	910000.0
k_c2	930000.0
k_c3	930000.0
k_c4	110000.0
k_c5	40000.0
k_c6	60000.0
k_c7	150000.0
k_c8	20000.0
k_dN	-0.0
o_1	0.0
o_2	-0.0
o_3	-0.0
o_4	-0.0
o_5	-0.0
o_6	-0.0
o_7	0.0
o_8	-0.0
p_1	0.0
p_2	0.0
p_3	0.0
p_4	0.0
p_5	0.0
p_6	0.0
p_7	0.0
p_8	0.0
phi_c1	31796.0
phi_c2	41303.0
phi_c3	40259.0
phi_c4	24726.0
phi_c5	14410.0
phi_c6	12430.0
phi_c7	20578.0
phi_c8	7205.0
phi_dN	-0.0
pi_c1	250000.0
pi_c2	250000.0
pi_c3	250000.0
pi_c4	200000.0
pi_c5	250000.0
pi_c6	250000.0
pi_c7	250000.0
pi_c8	250000.0
pi_dN	-0.0
tauD_c1	450000.0
tauD_c2	250000.0
tauD_c3	300000.0
tauD_c4	144050.0
tauD_c5	906150.0
tauD_c6	300000.0
tauD_c7	700000.0
tauD_c8	600000.0
tauD_d0	-0.0
tauD_dN	1000000.0
tauS_c1	855000.0
tauS_c2	887500.0
tauS_c3	883600.0
tauS_c4	114300.0
tauS_c5	866150.0
tauS_c6	874100.0
tauS_c7	844950.0
tauS_c8	893075.0
tauS_d0	-0.0
tauS_dN	1000000.0
x_c1_c7	1.0
x_c2_dN	1.0
x_c3_c1	1.0
x_c4_c6	1.0
x_c5_dN	1.0
x_c6_c8	1.0
x_c7_c5	1.0
x_c8_dN	1.0
x_d0_c2	1.0
x_d0_c3	1.0
x_d0_c4	1.0
